c 201_4_checker_6cl.cnf
c
c field = 201
c formula set type = 4_checker_6cl
c
p cnf 6 16
392 
394 
396 
398 
-390 
-402 
393 
395 
397 
399 
-391 
-403 
394 
396 
398 
402 
-392 
-404 
395 
397 
399 
403 
-393 
-405 
396 
398 
402 
404 
-394 
-406 
397 
399 
403 
405 
-395 
-407 
398 
402 
404 
406 
-396 
-408 
399 
403 
405 
407 
-397 
-409 
402 
404 
406 
408 
-398 
-410 
403 
405 
407 
409 
-399 
-411 
280 
310 
340 
370 
-250 
-430 
281 
311 
341 
371 
-251 
-431 
272 
304 
336 
368 
-240 
-432 
273 
305 
337 
369 
-241 
-433 
288 
316 
344 
372 
-260 
-428 
289 
317 
345 
373 
-261 
-429 
